n_res = 4;
rc = [ 25, 19, 15, 23 ];
n_tasks = 30;
d = [ 2, 4, 5, 6, 10, 9, 3, 1, 10, 4, 9, 8, 8, 8, 9, 5, 1, 2, 8, 3, 6, 2, 9, 8, 1, 8, 6, 8, 9, 10 ];
rr = [| 0, 0, 4, 4, 0, 0, 1, 6, 0, 6, 10, 5, 10, 0, 10, 0, 4, 3, 3, 0, 9, 0, 0, 3, 0, 10, 8, 2, 8, 8
      | 6, 2, 0, 0, 0, 7, 0, 9, 7, 9, 1, 0, 6, 7, 0, 2, 0, 10, 0, 7, 0, 4, 3, 3, 0, 0, 0, 0, 8, 0
      | 8, 0, 0, 0, 0, 4, 9, 0, 7, 0, 0, 7, 0, 8, 5, 0, 0, 0, 9, 0, 0, 0, 0, 0, 6, 0, 0, 7, 0, 0
      | 9, 0, 0, 0, 5, 0, 3, 5, 10, 0, 9, 0, 0, 10, 4, 8, 0, 9, 0, 0, 2, 0, 0, 6, 9, 0, 8, 0, 8, 6 |];
suc = [ { 2 }, 
        { 3 }, 
        { 4 }, 
        { 5 }, 
        { 6 }, 
        { 7 }, 
        { 8 }, 
        { 9 }, 
        { 10 }, 
        { 11 }, 
        { 12 }, 
        { 13 }, 
        { 14 }, 
        { 15 }, 
        { 16 }, 
        { 17 }, 
        { 18 }, 
        { 19 }, 
        { 20 }, 
        { 21 }, 
        { 22 }, 
        { 23 }, 
        { 24 }, 
        { 25 }, 
        { 26 }, 
        { 27 }, 
        { 28 }, 
        { 29 }, 
        { 30 }, 
        {  }]; 
